%NProcShared=4
%Chk=FuncsCAM-B3LYP.chk
# td= (nstates=6, root=1) CAM-B3LYP/6-31+G* Opt density=current

 FuncsCAM-B3LYP

0 1
C         -2.15886        0.68918        0.02974
C         -2.13320       -0.71621       -0.01570
C         -0.93572       -1.41751       -0.00819
C          0.24870       -0.67115        0.00319
C          0.25025        0.75220       -0.00266
C         -0.98322        1.42560       -0.01730
N          1.56570       -1.08029        0.00974
C          1.62609        1.16684       -0.00626
C          2.39038        0.03059        0.00688
H          1.87967       -2.03756        0.01447
H          1.99720        2.18233       -0.01920
H          3.46481       -0.08787        0.00753
H         -3.07500       -1.26400       -0.03434
H         -0.91687       -2.50699       -0.02386
H         -3.12254        1.20382        0.09559
H         -1.01374        2.51510       -0.04664

