$molecule
0 1
  C   -2.1593590    0.6916240    0.0001130
  C   -2.1358800   -0.7187440   -0.0000180
  C   -0.9351210   -1.4188180   -0.0000530
  C    0.2479060   -0.6719660   -0.0000120
  C    0.2499940    0.7519140   -0.0000590
  C   -0.9826900    1.4288360   -0.0000590
  N    1.5667810   -1.0809740   -0.0002540
  C    1.6259930    1.1669810   -0.0001030
  C    2.3903790    0.0304740    0.0002720
  H    1.8811720   -2.0385360    0.0007600
  H    1.9981510    2.1823440   -0.0003700
  H    3.4653330   -0.0865700    0.0004020
  H   -3.0732400   -1.2683220    0.0002320
  H   -0.9178890   -2.5058230   -0.0001550
  H   -3.1166280    1.2063520    0.0002350
  H   -1.0116930    2.5155560    0.0001950
$end

$rem
BASIS  =  6-31+G*
GUI  =  2
JOB_TYPE  =  Optimization
METHOD  = PBE
SCF_CONVERGENCE  =  8
THRESH = 12
CIS_N_ROOTS  = 3
CIS_SINGLETS = true
CIS_TRIPLETS = false
CIS_STATE_DERIV = 1
MEM_STATIC=500
MEM_TOTAL=3000   
$end