$molecule
0 1
  C   -2.1510630    0.6892080    0.0000880
  C   -2.1279270   -0.7158180    0.0000750
  C   -0.9322970   -1.4131000   -0.0000110
  C    0.2469110   -0.6702010   -0.0000420
  C    0.2481930    0.7482990    0.0000000
  C   -0.9794740    1.4235260    0.0000320
  N    1.5617740   -1.0775920   -0.0002850
  C    1.6201330    1.1629000   -0.0001570
  C    2.3820130    0.0308060    0.0002480
  H    1.8763150   -2.0300110    0.0004380
  H    1.9921730    2.1730100   -0.0003480
  H    3.4525490   -0.0824250    0.0004080
  H   -3.0615940   -1.2620200    0.0000880
  H   -0.9172520   -2.4953420   -0.0000730
  H   -3.1042030    1.2007850    0.0000900
  H   -1.0093480    2.5054210   -0.0000150
$end

$rem
BASIS  =  BASIS_SET
GUI  =  2
JOB_TYPE  =  Optimization
METHOD  = FUNCTIONAL
SCF_CONVERGENCE  =  8
THRESH = 12
CIS_N_ROOTS  = 3
CIS_SINGLETS = true
CIS_TRIPLETS = false
CIS_STATE_DERIV = RT_EQUALS
MEM_STATIC = 500
MEM_TOTAL = 3000   
$end